NAME : portcgen-15-28
COMMENT : portcgen N=15, seed=28
TYPE : TSP
DIMENSION : 15
EDGE_WEIGHT_TYPE : EUC_2D
NODE_COORD_SECTION
1 182330 -134125
2 287662 -256790
3 -241931 436363
4 -142084 96988
5 -194758 -33046
6 -518619 -137867
7 289284 -292168
8 -20655 508624
9 65432 273946
10 -273254 425618
11 -43874 105431
12 345581 -425851
13 425869 -236587
14 -250695 -205311
15 -7606 -8707
